u120_05
150 120 48 53
26 0
25 0
67 0
77 1
67 1
79 2
47 2
84 3
50 3
21 0
87 4
83 5
44 4
88 6
78 7
53 5
78 8
37 6
47 7
52 8
32 9
88 9
85 10
82 11
55 10
41 11
60 12
66 12
78 13
72 14
34 13
64 14
20 2
60 15
100 16
62 15
80 17
34 13
68 17
38 16
32 18
32 18
37 18
82 19
98 20
90 21
58 19
97 22
56 21
34 18
70 23
39 20
56 23
69 24
36 22
20 6
99 25
84 26
53 24
27 9
88 27
53 26
42 25
45 27
42 28
31 28
54 28
60 29
55 29
27 15
36 30
31 29
39 30
91 31
45 30
97 32
26 11
80 33
41 31
56 33
70 34
97 35
48 32
87 36
23 7
32 34
75 37
100 38
97 39
51 35
78 40
78 41
21 12
72 37
72 42
79 43
46 34
30 36
48 38
27 24
95 44
48 39
67 40
58 41
46 42
92 45
21 23
82 46
91 47
40 43
56 45
24 30
94 48
44 44
91 49
92 50
81 51
24 36
84 52
44 46